Assets/LKHProbs~/skull.84.tsp
NAME : GeneratedProblem
COMMENT : SVGCrosshatch
TYPE : TSP
DIMENSION : 20
EDGE_WEIGHT_TYPE : EUC_2D
NODE_COORD_SECTION
1 2100 7300
2 2100 7400
3 2100 7500
4 2200 7300
5 2200 7400
6 2200 7500
7 2300 7100
8 2300 7200
9 2300 7300
10 2300 7400
11 2300 7500
12 2400 7100
13 2400 7200
14 2400 7300
15 2400 7400
16 2400 7500
17 2500 7300
18 2500 7400
19 2500 7500
20 2600 7500
EOF
